NAME: concorde91
TYPE: TSP
DIMENSION: 15 
EDGE_WEIGHT_TYPE: EUC_2D
NODE_COORD_SECTION
1 57 30
2 44 38
3 60 70
4 96 95
5 27 78
6 66 22
7 7 72
8 7 67
9 37 71
10 30 28
11 55 71
12 37 66
13 85 4
14 62 6
15 40 28
